60
2 1 10
3 0 7
3 1 10
3 2 1
4 1 8
4 3 1
5 0 4
5 2 8
5 3 5
5 4 1
6 0 3
6 3 5
6 4 6
7 0 8
7 1 9
7 2 6
7 3 8
7 4 9
7 5 5
7 6 4
8 0 7
8 2 7
8 4 1
8 7 3
9 0 2
9 1 2
9 2 7
9 6 2
10 1 8
10 3 1
10 8 10
10 9 6
11 2 8
11 3 4
11 4 7
11 5 1
11 6 2
11 8 5
11 9 5
12 0 2
12 3 3
12 4 10
12 6 9
12 10 9
12 11 6
13 4 3
13 7 4
13 8 6
13 9 1
13 10 6
13 11 9
14 0 6
14 2 9
14 5 8
14 6 3
14 8 9
14 9 5
14 10 1
14 12 3
14 13 5
15 1 1
15 2 3
15 3 4
15 4 9
15 5 9
15 6 6
15 8 3
15 11 9
15 13 10
16 1 3
16 2 1
16 5 8
16 6 2
16 7 8
16 12 10
16 13 8
16 14 3
16 15 1
17 4 6
17 5 4
17 6 7
17 8 4
17 9 3
17 15 8
17 16 2
18 1 7
18 2 3
18 3 3
18 4 2
18 5 7
18 6 10
18 10 9
18 14 2
18 15 4
18 16 2
18 17 4
19 0 10
19 3 4
19 4 8
19 7 3
19 9 9
19 12 8
19 13 4
19 15 4
19 17 7
20 0 3
20 1 1
20 2 2
20 3 1
20 5 9
20 8 2
20 9 8
20 10 9
20 11 1
20 13 3
20 17 10
20 18 7
20 19 5
21 1 8
21 4 1
21 5 5
21 7 3
21 8 4
21 11 9
21 12 8
21 13 10
21 15 8
21 16 8
21 19 6
22 2 2
22 4 6
22 5 9
22 7 5
22 11 8
22 12 4
22 15 10
22 16 2
22 19 3
22 20 4
22 21 9
23 1 1
23 2 6
23 5 1
23 7 2
23 9 2
23 10 10
23 12 6
23 14 2
23 16 7
23 17 7
24 1 2
24 6 3
24 7 9
24 8 2
24 12 9
24 13 3
24 15 2
24 17 1
24 18 3
24 19 10
24 22 7
25 0 2
25 1 10
25 2 2
25 3 1
25 4 1
25 5 4
25 7 6
25 8 8
25 9 7
25 10 8
25 11 5
25 14 9
25 17 10
25 18 5
25 20 6
25 21 7
25 22 3
25 23 10
25 24 2
26 0 6
26 1 4
26 2 3
26 6 9
26 7 2
26 12 4
26 14 10
26 19 1
26 22 4
26 23 2
26 25 7
27 0 5
27 1 10
27 3 5
27 8 10
27 9 1
27 14 9
27 15 3
27 16 1
27 19 6
27 20 5
27 21 8
27 26 9
28 2 6
28 3 10
28 4 1
28 6 4
28 7 2
28 10 9
28 13 6
28 15 4
28 16 6
28 17 9
28 19 10
28 21 1
28 22 3
28 23 4
28 25 3
28 27 10
29 0 6
29 4 2
29 8 6
29 10 5
29 11 2
29 12 9
29 14 8
29 15 9
29 16 3
29 17 8
29 18 5
29 19 6
29 20 2
29 21 4
29 23 5
29 24 10
29 25 7
29 26 4
29 28 10
30 0 3
30 2 10
30 5 7
30 8 8
30 12 2
30 15 9
30 20 2
30 24 10
31 0 7
31 3 1
31 4 9
31 9 10
31 12 1
31 13 6
31 14 2
31 17 4
31 20 6
31 21 5
31 22 10
31 25 7
31 27 3
32 1 10
32 2 5
32 3 1
32 5 9
32 6 5
32 9 8
32 10 9
32 13 7
32 14 4
32 15 8
32 18 4
32 19 2
32 20 1
32 21 7
32 22 9
32 23 1
32 24 7
32 25 8
32 26 5
32 28 4
33 0 2
33 1 4
33 2 10
33 3 8
33 5 7
33 13 5
33 14 4
33 16 6
33 17 9
33 18 1
33 24 5
33 26 3
33 30 7
33 32 5
34 1 4
34 6 10
34 7 7
34 8 5
34 9 4
34 12 7
34 13 6
34 14 8
34 15 7
34 16 4
34 19 6
34 20 6
34 21 1
34 23 7
34 24 6
34 25 3
34 26 3
34 27 3
34 30 5
34 31 4
35 1 6
35 2 2
35 3 4
35 4 1
35 5 9
35 6 6
35 7 1
35 10 1
35 12 8
35 13 9
35 14 7
35 15 9
35 16 4
35 17 8
35 19 9
35 24 10
35 25 7
35 28 10
35 31 9
35 33 8
35 34 4
36 0 9
36 2 1
36 3 5
36 4 5
36 5 1
36 6 9
36 7 9
36 9 7
36 10 10
36 11 8
36 13 5
36 19 3
36 20 8
36 21 10
36 22 9
36 27 2
36 29 7
36 30 2
36 32 1
36 33 7
37 1 7
37 4 7
37 6 6
37 8 3
37 12 4
37 13 7
37 15 5
37 16 9
37 17 3
37 20 10
37 21 8
37 22 6
37 23 3
37 24 3
37 25 4
37 28 4
37 30 10
37 32 5
37 33 1
37 34 1
38 0 4
38 2 1
38 4 3
38 5 2
38 7 3
38 9 9
38 11 6
38 13 1
38 14 9
38 15 4
38 16 5
38 18 4
38 20 9
38 21 2
38 26 5
38 28 4
38 29 3
38 30 5
38 32 1
38 33 7
38 34 8
39 0 7
39 2 4
39 8 9
39 14 7
39 16 7
39 17 10
39 20 7
39 22 3
39 23 7
39 26 4
39 31 1
39 32 8
39 34 10
39 35 9
39 37 5
40 0 5
40 1 4
40 2 10
40 3 1
40 5 1
40 6 4
40 7 9
40 8 9
40 10 8
40 11 7
40 12 8
40 15 3
40 20 4
40 23 10
40 27 10
40 28 7
40 31 9
40 33 5
40 34 8
40 36 8
40 37 9
40 38 10
40 39 7
41 0 1
41 1 10
41 2 4
41 4 9
41 5 3
41 9 6
41 10 1
41 12 8
41 16 2
41 17 4
41 19 4
41 21 8
41 22 8
41 24 1
41 25 10
41 26 10
41 27 2
41 29 1
41 30 10
41 31 9
41 32 6
41 35 9
41 36 5
41 39 2
41 40 3
42 0 7
42 1 4
42 2 6
42 5 10
42 8 9
42 10 6
42 15 2
42 19 8
42 20 10
42 24 8
42 27 3
42 30 9
42 32 2
42 34 2
42 35 8
43 2 4
43 6 6
43 8 1
43 9 4
43 10 10
43 11 5
43 12 4
43 13 9
43 17 2
43 22 7
43 23 3
43 25 5
43 29 1
43 30 5
43 31 2
43 32 2
43 36 4
43 38 9
43 39 1
43 40 1
44 2 8
44 3 4
44 5 10
44 6 2
44 8 7
44 9 2
44 10 6
44 12 9
44 13 6
44 16 10
44 18 8
44 20 1
44 21 4
44 22 2
44 23 5
44 25 7
44 27 1
44 28 9
44 33 2
44 34 6
44 35 7
44 36 8
44 40 8
44 43 7
45 0 9
45 1 6
45 2 2
45 3 2
45 5 4
45 6 5
45 7 9
45 9 3
45 10 9
45 14 4
45 16 1
45 25 1
45 26 6
45 27 1
45 28 6
45 29 9
45 32 8
45 34 4
45 36 1
46 0 4
46 5 9
46 6 6
46 8 6
46 10 6
46 11 7
46 12 3
46 13 5
46 14 5
46 16 6
46 17 1
46 19 1
46 21 7
46 23 2
46 27 3
46 28 1
46 29 5
46 30 3
46 34 10
46 35 9
46 36 6
46 37 9
46 44 10
47 0 4
47 1 9
47 6 8
47 7 6
47 8 3
47 11 4
47 13 5
47 14 4
47 15 7
47 18 2
47 19 1
47 21 1
47 24 2
47 28 9
47 31 10
47 33 3
47 35 1
47 36 2
47 37 2
47 38 6
47 39 2
47 40 7
47 42 8
47 44 5
47 46 9
48 0 6
48 2 1
48 5 3
48 8 2
48 10 10
48 12 10
48 14 6
48 15 1
48 17 5
48 20 3
48 21 3
48 23 7
48 24 8
48 27 1
48 28 9
48 29 3
48 32 3
48 33 1
48 34 2
48 36 2
48 37 1
48 39 6
48 43 2
48 45 3
49 3 7
49 6 3
49 9 1
49 11 7
49 15 5
49 17 5
49 18 4
49 19 1
49 21 2
49 22 5
49 23 2
49 25 1
49 26 4
49 27 4
49 29 3
49 33 9
49 35 8
49 36 2
49 37 5
49 40 10
49 43 1
49 44 7
49 45 1
49 48 1
50 0 8
50 3 9
50 4 9
50 10 2
50 13 6
50 16 3
50 20 3
50 21 2
50 22 8
50 23 1
50 24 10
50 25 1
50 27 9
50 28 9
50 30 8
50 33 2
50 37 3
50 40 1
50 42 5
50 47 6
51 1 10
51 2 6
51 3 5
51 5 2
51 6 7
51 9 3
51 13 9
51 15 9
51 16 4
51 17 5
51 20 1
51 21 8
51 22 8
51 23 5
51 26 1
51 28 3
51 29 6
51 31 6
51 35 8
51 38 7
51 40 3
51 41 9
51 42 6
51 43 6
51 45 7
51 46 4
51 48 2
51 50 5
52 0 6
52 2 8
52 4 10
52 6 3
52 10 1
52 15 7
52 16 7
52 17 4
52 18 1
52 23 5
52 24 1
52 26 8
52 31 1
52 32 9
52 33 8
52 34 2
52 35 4
52 36 6
52 37 5
52 38 1
52 46 8
52 49 4
53 0 2
53 2 2
53 4 5
53 6 9
53 10 2
53 11 9
53 12 2
53 13 10
53 16 6
53 18 1
53 19 3
53 20 9
53 22 6
53 24 10
53 25 2
53 27 7
53 29 3
53 31 1
53 32 6
53 34 6
53 35 6
53 37 2
53 40 8
53 44 1
53 45 9
53 46 1
53 50 6
53 51 1
53 52 3
54 0 8
54 1 6
54 4 8
54 5 2
54 7 5
54 9 9
54 10 9
54 11 4
54 13 6
54 14 4
54 20 10
54 21 8
54 22 9
54 28 6
54 29 10
54 31 9
54 32 5
54 33 9
54 34 7
54 35 6
54 38 6
54 43 1
54 44 3
54 49 4
54 50 2
54 52 3
55 3 4
55 8 3
55 9 1
55 10 3
55 15 5
55 17 9
55 18 1
55 19 9
55 20 9
55 21 9
55 22 1
55 25 1
55 30 6
55 33 9
55 35 9
55 36 5
55 38 9
55 43 6
55 46 10
55 48 4
55 49 7
55 50 3
55 53 8
56 0 6
56 1 10
56 3 2
56 4 5
56 5 5
56 8 1
56 9 10
56 10 1
56 12 6
56 14 8
56 16 6
56 18 9
56 21 7
56 22 1
56 24 10
56 26 10
56 27 7
56 28 1
56 29 9
56 30 6
56 31 1
56 34 9
56 39 6
56 41 9
56 42 9
56 45 10
56 48 9
56 50 6
56 51 2
56 53 7
56 55 9
57 0 8
57 1 6
57 2 4
57 4 4
57 5 6
57 6 10
57 7 6
57 8 5
57 9 7
57 10 5
57 13 6
57 15 2
57 16 5
57 18 5
57 21 3
57 22 3
57 26 6
57 28 8
57 33 10
57 34 10
57 37 8
57 38 2
57 39 4
57 41 7
57 42 7
57 44 8
57 47 2
57 48 4
57 49 1
57 52 5
57 54 6
57 56 6
58 0 10
58 1 10
58 2 7
58 7 9
58 9 3
58 11 4
58 12 2
58 16 4
58 17 2
58 20 5
58 23 6
58 27 2
58 28 7
58 30 2
58 38 9
58 39 10
58 40 4
58 41 6
58 42 4
58 43 8
58 44 5
58 46 5
58 48 10
58 52 1
58 54 4
58 55 2
59 0 8
59 1 4
59 3 5
59 6 8
59 11 6
59 12 9
59 13 7
59 15 1
59 16 6
59 17 7
59 18 9
59 19 6
59 20 10
59 24 9
59 25 6
59 28 7
59 30 7
59 31 2
59 41 9
59 42 3
59 45 8
59 48 5
59 50 2
59 51 8
59 53 6
59 54 9
59 55 4
59 57 8
